CPXPARAM_TimeLimit                               7200
CPXPARAM_Read_DataCheck                          1
Parallel mode: deterministic, using up to 8 threads for concurrent optimization.
Tried aggregator 1 time.
No LP presolve or aggregator reductions.
Presolve time = 0.00 sec. (1.32 ticks)

Iteration log . . .
Iteration:     1   Dual objective     =           911.000000
Iteration:    96   Dual objective     =           911.000000
Perturbation started.
Iteration:   101   Dual objective     =           911.000000
Iteration:   207   Dual objective     =           911.014669
Iteration:   375   Dual objective     =           911.014980
Iteration:   548   Dual objective     =           911.014983
Iteration:   724   Dual objective     =           911.014985
Iteration:   904   Dual objective     =           911.014986
Removing perturbation.

Dual simplex solved model.

